Route #1: 24
Route #2: 3
Route #3: 26 5
Route #4: 15 13 30
Route #5: 11 6 1 36 17 23 21
Route #6: 35 25 33 19 4 7 8
Route #7: 29 28 9 12 38 37 31 14 2
Route #8: 20 32 18 22 34 27 10 16
cost: 902.4958250771614
